data/solutions/recovery/degenerate/moderate/flexible/degenerate_moderate_instance36/50.sol
Elapsed time: 0.78
Upper bound: 1410066066.0
Planning weighted value: 37018087628.0
C[0]=1410066066.0
C[1]=1410065925.0
C[2]=1409947964.0
C[3]=1409923059.0
C[4]=0.0
y[0]=1
y[1]=3
y[2]=1
y[3]=0
y[4]=2
y[5]=3
y[6]=2
y[7]=2
y[8]=3
y[9]=3
y[10]=0
y[11]=3
y[12]=3
y[13]=1
y[14]=2
y[15]=1
y[16]=1
y[17]=0
y[18]=0
y[19]=3
y[20]=1
y[21]=3
y[22]=3
y[23]=1
y[24]=1
y[25]=3
y[26]=0
y[27]=3
y[28]=0
y[29]=0
y[30]=2
y[31]=2
y[32]=3
y[33]=2
y[34]=3
y[35]=2
y[36]=0
y[37]=2
y[38]=2
y[39]=1
y[40]=0
y[41]=0
y[42]=1
y[43]=0
y[44]=2
y[45]=0
